WARNING: for repeatability, setting FPU to use double precision
============================[ Problem Statistics ]=============================
|                                                                             |
|  Number of variables:        636737                                         |
|  Number of clauses:         1128757                                         |
|  Parse time:                   0.32 s                                       |
|                                                                             |
c ============================[ Search Statistics ]==============================
c | Conflicts |          ORIGINAL         |          LEARNT          | Progress |
c |           |    Vars  Clauses Literals |    Limit  Clauses Lit/Cl |          |
c ===============================================================================
We had 3 decisions of which only 0 were on extended
We had 535684 decisions of which only 0 were on extended
We had 48214687 decisions of which only 0 were on extended
We had 118453360 decisions of which only 0 were on extended
We had 161663804 decisions of which only 0 were on extended
c Switched to VSIDS.
We had 221608187 decisions of which only 0 were on extended
We had 281372308 decisions of which only 0 were on extended
c Switched to LRB.
c Switched to VSIDS.
We had 361756831 decisions of which only 0 were on extended
c Switched to LRB.
c Switched to VSIDS.
c Switched to LRB.
c Switched to VSIDS.
We had 459300447 decisions of which only 0.000273459 were on extended
c Switched to LRB.
c Switched to VSIDS.
We had 552591843 decisions of which only 0.000675182 were on extended
We had 570760626 decisions of which only 0.000654916 were on extended
c Switched to LRB.
c Switched to VSIDS.
We had 587910466 decisions of which only 0.000635811 were on extended
c ===============================================================================
restarts                  : 60
conflicts                 : 116754         (157 /sec)
decisions                 : 612503129      (0.00 % random) (824386 /sec)
propagations              : 4061770108     (5466856 /sec)
conflict literals         : 235451         (0.78 % deleted)

conflicts w/ DIP found    : 114067         (97.70 % of conflicts)
conflicts w/ dangerous DIP: 0              (0.00 % of conflicts)
conflicts w/ DIP-learning : 2              (0.00 % of conflicts)
decisions on ext vars     : 3738           (0.00 % of decisions)
total ext vars            : 2           
tried delete ext vars     : 0           
deleted ext vars          : 0           
max ext vars              : 2           

Memory used               : 288.00 MB
CPU time                  : 742.981 s
DIP computation time      : 1.7913 s (0.24 % of total time)
ER_sel time               : 0.082402 s
ER_add time               : 0.000406 s
ER_delC time              : 0 s
ER_delV time              : 0 s
ER_sub time               : 0.16478 s
ER_stat time              : 0 s

UNSATISFIABLE
